
--- Job hw3-2.gms Start 09/27/23 13:50:37 44.3.0 8b8fb1cb WEX-WEI x86 64bit/MS Windows
--- Applying:
    C:\GAMS\44\gmsprmNT.txt
--- GAMS Parameters defined
    Input C:\Users\Rocke\OneDrive\Documents\isye524\hw\hw3\hw3-2.gms
    PageSize 0
    ScrDir C:\Users\Rocke\OneDrive\Documents\isye524\hw\hw3\225a\
    SysDir C:\GAMS\44\
    LogOption 3
    ErrMsg 1
    ErrorLog 99
    IDE 1
    LstTitleLeftAligned 1
Licensee: GAMS Demo, for EULA and demo limitations see   G230706/0001CB-GEN
          https://www.gams.com/latest/docs/UG%5FLicense.html         DC0000
          C:\GAMS\44\gamslice.txt
          Demo license for demonstration and instructional purposes only
Processor information: 1 socket(s), 4 core(s), and 8 thread(s) available
GAMS 44.3.0   Copyright (C) 1987-2023 GAMS Development. All rights reserved
--- Starting compilation
--- hw3-2.gms(67) 3 Mb
--- Starting execution: elapsed 0:00:00.010
--- hw3-2.gms(58) 4 Mb
--- Generating LP model hydro
--- hw3-2.gms(60) 4 Mb
---   15 rows  21 columns  43 non-zeroes
--- Range statistics (absolute non-zero finite values)
--- RHS       [min, max] : [ 1.500E+01, 6.000E+04] - Zero values observed as well
--- Bound     [min, max] : [ 8.000E+02, 5.000E+04] - Zero values observed as well
--- Matrix    [min, max] : [ 1.000E+00, 4.000E+02]
--- Executing CPLEX (Solvelink=2): elapsed 0:00:00.017

IBM ILOG CPLEX   44.3.0 8b8fb1cb Sep 1, 2023           WEI x86 64bit/MS Window

--- *** This solver runs with a demo license. No commercial use.
--- GMO setup time: 0.00s
--- GMO memory 0.50 Mb (peak 0.50 Mb)
--- Dictionary memory 0.00 Mb
--- Cplex 22.1.1.0 link memory 0.00 Mb (peak 0.00 Mb)
--- Starting Cplex

Version identifier: 22.1.1.0 | 2022-11-27 | 9160aff4d
CPXPARAM_Advance                                 0
CPXPARAM_Simplex_Display                         2
CPXPARAM_Threads                                 1
CPXPARAM_MIP_Display                             4
CPXPARAM_MIP_Pool_Capacity                       0
CPXPARAM_MIP_Tolerances_AbsMIPGap                0
Tried aggregator 1 time.
LP Presolve eliminated 4 rows and 2 columns.
Aggregator did 4 substitutions.
Reduced LP has 6 rows, 15 columns, and 25 nonzeros.
Presolve time = 0.00 sec. (0.02 ticks)
Initializing dual steep norms . . .

Iteration      Dual Objective            In Variable           Out Variable
     1 sI         2687.999999    excess_power(March)total_power_bal_c artif
     2 sI         2491.999998   total_power(B,March)         spill(B,March)
     3 sI         1791.999998         spill(A,March)         water(A,March)
     4 sI         1791.999998       outflow(A,April)total_power_bal_c artif
     5 sI          895.999997    excess_power(April)       outflow(A,April)
     6 sI            0.000000   total_power(B,April)         spill(B,April)
     7         1364500.000000         water(A,March)   total_power(B,March)
     8          815000.000000         water(A,April)   total_power(B,April)
     9          815000.000000         spill(B,March)         spill(A,March)

--- LP status (1): optimal.
--- Cplex Time: 0.00sec (det. 0.03 ticks)


Optimal solution found
Objective:       815000.000000

--- Reading solution for model hydro
--- Executing after solve: elapsed 0:00:00.093
--- hw3-2.gms(62) 4 Mb
*** Status: Normal completion
--- Job hw3-2.gms Stop 09/27/23 13:50:38 elapsed 0:00:00.095
